p wcnf 540 1959 90454
90454 -92 -93 0
90454 -92 -94 0
90454 -93 -94 0
90454 92 93 94 0
90454 -95 -96 0
90454 -95 -97 0
90454 -96 -97 0
90454 95 96 97 0
90454 -100 -101 0
90454 -100 -102 0
90454 -100 -103 0
90454 -101 -102 0
90454 -101 -103 0
90454 -102 -103 0
90454 100 101 102 103 0
90454 -104 -105 0
90454 -104 -106 0
90454 -104 -107 0
90454 -105 -106 0
90454 -105 -107 0
90454 -106 -107 0
90454 104 105 106 107 0
90454 -108 -109 0
90454 -108 -110 0
90454 -108 -111 0
90454 -109 -110 0
90454 -109 -111 0
90454 -110 -111 0
90454 108 109 110 111 0
90454 -112 -113 0
90454 -112 -114 0
90454 -112 -115 0
90454 -113 -114 0
90454 -113 -115 0
90454 -114 -115 0
90454 112 113 114 115 0
90454 -116 -117 0
90454 -116 -118 0
90454 -117 -118 0
90454 116 117 118 0
90454 -119 -120 0
90454 -119 -121 0
90454 -120 -121 0
90454 119 120 121 0
90454 -122 -123 0
90454 -122 -124 0
90454 -123 -124 0
90454 122 123 124 0
90454 -125 -126 0
90454 -125 -127 0
90454 -126 -127 0
90454 125 126 127 0
90454 -128 -129 0
90454 -128 -130 0
90454 -129 -130 0
90454 128 129 130 0
90454 -131 -132 0
90454 -131 -133 0
90454 -132 -133 0
90454 131 132 133 0
90454 -138 -139 0
90454 -138 -140 0
90454 -139 -140 0
90454 138 139 140 0
90454 -141 -142 0
90454 -141 -143 0
90454 -142 -143 0
90454 141 142 143 0
90454 -160 -161 0
90454 -160 -162 0
90454 -160 -163 0
90454 -161 -162 0
90454 -161 -163 0
90454 -162 -163 0
90454 160 161 162 163 0
90454 -177 -178 0
90454 -177 -179 0
90454 -178 -179 0
90454 177 178 179 0
90454 -185 -186 0
90454 -185 -187 0
90454 -186 -187 0
90454 185 186 187 0
90454 -202 -203 0
90454 -202 -204 0
90454 -203 -204 0
90454 202 203 204 0
90454 -469 -470 0
90454 -469 -471 0
90454 -470 -471 0
90454 469 470 471 0
90454 -480 -481 0
90454 -480 -482 0
90454 -480 -483 0
90454 -481 -482 0
90454 -481 -483 0
90454 -482 -483 0
90454 480 481 482 483 0
90454 -484 -485 0
90454 -484 -486 0
90454 -484 -487 0
90454 -485 -486 0
90454 -485 -487 0
90454 -486 -487 0
90454 484 485 486 487 0
90454 -490 -491 0
90454 -490 -492 0
90454 -491 -492 0
90454 490 491 492 0
90454 -493 -494 0
90454 -493 -495 0
90454 -494 -495 0
90454 493 494 495 0
90454 -498 -499 0
90454 -498 -500 0
90454 -498 -501 0
90454 -499 -500 0
90454 -499 -501 0
90454 -500 -501 0
90454 498 499 500 501 0
90454 -502 -503 0
90454 -502 -504 0
90454 -502 -505 0
90454 -503 -504 0
90454 -503 -505 0
90454 -504 -505 0
90454 502 503 504 505 0
90454 -508 -509 0
90454 -508 -510 0
90454 -508 -511 0
90454 -509 -510 0
90454 -509 -511 0
90454 -510 -511 0
90454 508 509 510 511 0
90454 -512 -513 0
90454 -512 -514 0
90454 -512 -515 0
90454 -513 -514 0
90454 -513 -515 0
90454 -514 -515 0
90454 512 513 514 515 0
90454 -524 -525 0
90454 -524 -526 0
90454 -524 -527 0
90454 -525 -526 0
90454 -525 -527 0
90454 -526 -527 0
90454 524 525 526 527 0
90454 -528 -529 0
90454 -528 -530 0
90454 -528 -531 0
90454 -529 -530 0
90454 -529 -531 0
90454 -530 -531 0
90454 528 529 530 531 0
90454 -538 -539 0
90454 -538 -540 0
90454 -539 -540 0
90454 538 539 540 0
218 6 -2 0
218 -6 2 0
218 7 -4 0
218 -7 4 0
218 9 -6 0
218 -9 6 0
218 11 -9 0
218 -11 9 0
218 14 -11 0
218 -14 11 0
436 16 -12 0
218 18 -14 0
218 -18 14 0
436 20 -16 0
436 21 -20 0
436 23 -21 0
218 25 -22 0
218 -25 22 0
90454 173 23 0
436 26 -23 0
436 27 -26 0
90454 181 27 0
436 30 -27 0
218 35 -34 0
218 -35 34 0
218 39 -37 0
218 -39 37 0
218 42 -41 0
218 -42 41 0
90454 206 42 0
218 47 -44 0
218 -47 44 0
218 48 -46 0
218 -48 46 0
218 49 -47 0
218 -49 47 0
218 50 -48 0
218 -50 48 0
218 51 -49 0
218 -51 49 0
90454 152 50 0
218 52 -50 0
218 -52 50 0
218 54 -51 0
218 -54 51 0
436 55 -52 0
218 57 -54 0
218 -57 54 0
436 59 -55 0
436 60 -59 0
436 62 -60 0
218 64 -61 0
218 -64 61 0
90454 173 62 0
436 65 -62 0
436 66 -65 0
90454 181 66 0
436 69 -66 0
218 74 -73 0
218 -74 73 0
218 78 -76 0
218 -78 76 0
218 81 -78 0
218 -81 78 0
218 82 -80 0
218 -82 80 0
90454 206 82 0
218 83 -82 0
218 -83 82 0
90454 208 83 0
218 86 -83 0
218 -86 83 0
218 89 -86 0
218 -89 86 0
218 149 -145 0
218 -149 145 0
218 151 -147 0
218 -151 147 0
218 153 -151 0
218 -153 151 0
218 157 -153 0
218 -157 153 0
218 159 -155 0
218 -159 155 0
218 164 -157 0
218 -164 157 0
218 166 -159 0
218 -166 159 0
218 168 -164 0
218 -168 164 0
218 170 -166 0
218 -170 166 0
218 172 -168 0
218 -172 168 0
218 174 -172 0
218 -174 172 0
218 180 -174 0
218 -180 174 0
218 182 -180 0
218 -182 180 0
218 188 -182 0
218 -188 182 0
218 189 -184 0
218 -189 184 0
218 191 -189 0
218 -191 189 0
218 195 -191 0
218 -195 191 0
218 197 -193 0
218 -197 193 0
218 199 -197 0
218 -199 197 0
218 205 -199 0
218 -205 199 0
218 207 -205 0
218 -207 205 0
218 209 -207 0
218 -209 207 0
218 213 -209 0
218 -213 209 0
218 215 -211 0
218 -215 211 0
218 217 -213 0
218 -217 213 0
90454 -469 -214 0
90454 -471 214 0
90454 -469 215 -214 0
90454 -469 -215 -214 0
90454 -470 215 214 0
90454 -470 -215 -214 0
90454 -471 215 214 0
90454 -471 -215 214 0
90454 -538 -216 0
90454 -540 216 0
90454 -538 217 -216 0
90454 -538 -217 -216 0
90454 -539 217 216 0
90454 -539 -217 -216 0
90454 -540 217 216 0
90454 -540 -217 216 0
218 220 -218 0
218 -220 218 0
218 221 -219 0
218 -221 219 0
218 222 -221 0
218 -222 221 0
218 224 -222 0
218 -224 222 0
218 226 -223 0
218 -226 223 0
218 228 -224 0
218 -228 224 0
218 229 -226 0
218 -229 226 0
218 230 -228 0
218 -230 228 0
218 231 -229 0
218 -231 229 0
218 232 -230 0
218 -232 230 0
218 233 -232 0
218 -233 232 0
218 235 -233 0
218 -235 233 0
218 236 -235 0
218 -236 235 0
218 238 -236 0
218 -238 236 0
218 239 -237 0
218 -239 237 0
218 240 -238 0
218 -240 238 0
218 241 -239 0
218 -241 239 0
218 242 -240 0
218 -242 240 0
218 244 -241 0
218 -244 241 0
218 246 -242 0
218 -246 242 0
218 247 -246 0
218 -247 246 0
218 249 -247 0
218 -249 247 0
218 255 -252 0
218 -255 252 0
218 256 -254 0
218 -256 254 0
218 257 -256 0
218 -257 256 0
218 259 -257 0
218 -259 257 0
218 263 -260 0
218 -263 260 0
218 265 -261 0
218 -265 261 0
218 266 -265 0
218 -266 265 0
218 270 -266 0
218 -270 266 0
218 271 -270 0
218 -271 270 0
218 273 -271 0
218 -273 271 0
218 274 -272 0
218 -274 272 0
218 275 -273 0
218 -275 273 0
218 277 -274 0
218 -277 274 0
218 279 -275 0
218 -279 275 0
218 280 -277 0
218 -280 277 0
218 281 -279 0
218 -281 279 0
218 284 -283 0
218 -284 283 0
218 285 -284 0
218 -285 284 0
218 289 -285 0
218 -289 285 0
218 291 -287 0
218 -291 287 0
218 293 -289 0
218 -293 289 0
90454 -469 -290 0
2 -470 -290 0
90454 -471 290 0
90454 -469 291 -290 0
90454 -469 -291 -290 0
90454 -470 291 290 0
90454 -470 -291 -290 0
90454 -471 291 290 0
90454 -471 -291 290 0
90454 -538 -292 0
2 -539 -292 0
90454 -540 292 0
90454 -538 293 -292 0
90454 -538 -293 -292 0
90454 -539 293 292 0
90454 -539 -293 -292 0
90454 -540 293 292 0
90454 -540 -293 292 0
218 296 -294 0
218 -296 294 0
218 297 -295 0
218 -297 295 0
218 298 -297 0
218 -298 297 0
218 303 -300 0
218 -303 300 0
218 304 -302 0
218 -304 302 0
218 305 -303 0
218 -305 303 0
218 306 -304 0
218 -306 304 0
218 307 -306 0
218 -307 306 0
218 309 -307 0
218 -309 307 0
218 310 -309 0
218 -310 309 0
218 312 -310 0
218 -312 310 0
218 313 -311 0
218 -313 311 0
218 314 -312 0
218 -314 312 0
218 316 -313 0
218 -316 313 0
218 318 -314 0
218 -318 314 0
218 319 -316 0
218 -319 316 0
218 320 -318 0
218 -320 318 0
218 323 -322 0
218 -323 322 0
218 324 -323 0
218 -324 323 0
218 328 -324 0
218 -328 324 0
218 330 -326 0
218 -330 326 0
218 332 -328 0
218 -332 328 0
90454 -469 -329 0
90454 -471 329 0
90454 -469 330 -329 0
90454 -469 -330 -329 0
90454 -470 330 329 0
90454 -470 -330 -329 0
90454 -471 330 329 0
90454 -471 -330 329 0
90454 -538 -331 0
90454 -540 331 0
90454 -538 332 -331 0
90454 -538 -332 -331 0
90454 -539 332 331 0
90454 -539 -332 -331 0
90454 -540 332 331 0
90454 -540 -332 331 0
218 335 -333 0
218 -335 333 0
218 336 -334 0
218 -336 334 0
218 337 -336 0
218 -337 336 0
218 339 -337 0
218 -339 337 0
218 341 -338 0
218 -341 338 0
218 343 -339 0
218 -343 339 0
218 344 -341 0
218 -344 341 0
218 345 -343 0
218 -345 343 0
218 347 -344 0
218 -347 344 0
218 349 -345 0
218 -349 345 0
218 350 -349 0
218 -350 349 0
218 352 -350 0
218 -352 350 0
218 353 -352 0
218 -353 352 0
218 357 -353 0
218 -357 353 0
218 358 -355 0
218 -358 355 0
218 359 -357 0
218 -359 357 0
218 360 -358 0
218 -360 358 0
218 361 -359 0
218 -361 359 0
218 362 -360 0
218 -362 360 0
218 363 -361 0
218 -363 361 0
218 364 -363 0
218 -364 363 0
218 366 -364 0
218 -366 364 0
218 367 -366 0
218 -367 366 0
218 368 -367 0
218 -368 367 0
218 373 -371 0
218 -373 371 0
218 374 -372 0
218 -374 372 0
218 375 -373 0
218 -375 373 0
218 376 -374 0
218 -376 374 0
218 377 -375 0
218 -377 375 0
218 378 -376 0
218 -378 376 0
218 379 -377 0
218 -379 377 0
218 380 -379 0
218 -380 379 0
218 382 -380 0
218 -382 380 0
218 383 -382 0
218 -383 382 0
218 387 -383 0
218 -387 383 0
218 388 -385 0
218 -388 385 0
218 389 -387 0
218 -389 387 0
218 390 -388 0
218 -390 388 0
218 391 -389 0
218 -391 389 0
218 392 -390 0
218 -392 390 0
218 393 -391 0
218 -393 391 0
218 394 -393 0
218 -394 393 0
218 396 -394 0
218 -396 394 0
218 397 -396 0
218 -397 396 0
218 398 -397 0
218 -398 397 0
218 403 -400 0
218 -403 400 0
218 404 -402 0
218 -404 402 0
218 405 -404 0
218 -405 404 0
218 407 -405 0
218 -407 405 0
218 408 -406 0
218 -408 406 0
218 409 -407 0
218 -409 407 0
218 410 -408 0
218 -410 408 0
218 411 -409 0
218 -411 409 0
218 413 -410 0
218 -413 410 0
218 415 -411 0
218 -415 411 0
218 416 -415 0
218 -416 415 0
218 419 -417 0
218 -419 417 0
218 420 -418 0
218 -420 418 0
218 421 -419 0
218 -421 419 0
218 422 -420 0
218 -422 420 0
218 423 -421 0
218 -423 421 0
218 425 -422 0
218 -425 422 0
218 427 -423 0
218 -427 423 0
218 428 -427 0
218 -428 427 0
218 432 -428 0
218 -432 428 0
218 433 -432 0
218 -433 432 0
218 434 -433 0
218 -434 433 0
218 438 -434 0
218 -438 434 0
218 440 -436 0
218 -440 436 0
218 442 -438 0
218 -442 438 0
90454 -469 -439 0
11 -470 -439 0
90454 -471 439 0
90454 -469 440 -439 0
90454 -469 -440 -439 0
90454 -470 440 439 0
90454 -470 -440 -439 0
90454 -471 440 439 0
90454 -471 -440 439 0
333 -538 -442 0
90454 -538 -441 0
192 -539 -441 0
90454 -540 441 0
333 442 441 0
90454 -538 442 -441 0
90454 -538 -442 -441 0
90454 -539 442 441 0
90454 -539 -442 -441 0
90454 -540 442 441 0
90454 -540 -442 441 0
90454 169 -21 0
90454 171 21 0
90454 194 -35 0
90454 196 35 0
90454 -92 -47 0
90454 -93 -47 0
5 -94 47 0
90454 -95 47 0
90454 -96 47 0
5 -97 -47 0
90454 148 -48 0
90454 150 48 0
90454 98 -49 0
90454 99 49 0
90454 -100 -51 0
90454 -101 -51 0
71 -102 51 0
90454 -103 -51 0
90454 -104 51 0
90454 -105 51 0
71 -106 -51 0
90454 -107 51 0
218 154 52 0
90236 -154 -52 0
90454 -156 52 0
90454 169 -60 0
90454 171 60 0
90454 194 -74 0
90454 196 74 0
90454 -443 -218 0
90454 -444 218 0
90454 -472 -219 0
90454 -473 219 0
90454 445 -220 0
210 -445 220 0
90454 446 220 0
210 -446 -220 0
62 474 221 0
90454 -474 -221 0
62 475 -221 0
90454 -475 221 0
90454 476 -222 0
90454 477 222 0
90454 447 -223 0
90454 448 223 0
90454 478 -224 0
125 -478 224 0
90454 479 224 0
125 -479 -224 0
90454 451 -229 0
57 -451 229 0
90454 452 229 0
57 -452 -229 0
90454 488 -230 0
57 -488 230 0
90454 489 230 0
57 -489 -230 0
90454 -453 -231 0
90454 -454 231 0
90454 -490 -232 0
90454 -492 -232 0
90454 -493 232 0
90454 -495 232 0
90454 -496 -233 0
90454 -497 233 0
90454 -455 -234 0
90454 -456 234 0
90454 -498 -235 0
90454 -499 -235 0
90454 -501 -235 0
90454 -502 235 0
90454 -503 235 0
90454 -505 235 0
90454 506 -236 0
90454 507 236 0
90454 457 -237 0
9 -457 237 0
90454 458 237 0
9 -458 -237 0
90454 -508 -238 0
90454 -509 -238 0
9 -510 238 0
90454 -511 -238 0
90454 -512 238 0
90454 -513 238 0
9 -514 -238 0
90454 -515 238 0
134 459 239 0
90454 -459 -239 0
134 460 -239 0
90454 -460 239 0
20 516 240 0
90454 -516 -240 0
20 517 -240 0
90454 -517 240 0
90454 461 -241 0
90454 462 241 0
90454 518 -242 0
90454 519 242 0
90454 -522 -247 0
90454 -523 247 0
90454 465 -248 0
90454 466 248 0
90454 -524 -249 0
90454 -525 -249 0
90454 -526 -249 0
235 -527 249 0
90454 -528 249 0
90454 -529 249 0
90454 -530 249 0
235 -531 -249 0
90454 534 -250 0
90454 535 250 0
90454 445 -255 0
90454 446 255 0
90454 474 -256 0
90454 475 256 0
90454 476 -257 0
90454 477 257 0
90454 447 -258 0
90454 448 258 0
90454 -478 -259 0
90454 -479 259 0
90454 -451 -260 0
90454 -452 260 0
90454 -488 -261 0
90454 -489 261 0
90454 496 -266 0
38 -496 266 0
90454 497 266 0
38 -497 -266 0
90454 506 -271 0
90454 507 271 0
90454 457 -272 0
90454 458 272 0
90454 -508 -273 0
90454 -509 -273 0
90454 -511 -273 0
90454 -512 273 0
90454 -513 273 0
90454 -515 273 0
90454 -459 -274 0
90454 -460 274 0
90454 516 -275 0
90454 517 275 0
90454 -463 -280 0
90454 -464 280 0
90454 -520 -281 0
90454 -521 281 0
90454 465 -282 0
90454 466 282 0
90454 -524 -283 0
90454 -525 -283 0
90454 -526 -283 0
90454 -528 283 0
90454 -529 283 0
90454 -530 283 0
90454 -532 -284 0
90454 -533 284 0
90454 534 -285 0
90454 535 285 0
90454 -443 -294 0
90454 -444 294 0
90454 -472 -295 0
90454 -473 295 0
90454 445 -296 0
90454 446 296 0
90454 -474 -297 0
90454 -475 297 0
90454 476 -298 0
90454 477 298 0
90454 451 -303 0
90454 452 303 0
90454 488 -304 0
90454 489 304 0
90454 -453 -305 0
90454 -454 305 0
90454 -490 -306 0
90454 -492 -306 0
90454 -493 306 0
90454 -495 306 0
90454 -496 -307 0
90454 -497 307 0
90454 -455 -308 0
90454 -456 308 0
90454 -498 -309 0
90454 -499 -309 0
90454 -501 -309 0
90454 -502 309 0
90454 -503 309 0
90454 -505 309 0
90454 506 -310 0
90454 507 310 0
90454 457 -311 0
90454 458 311 0
90454 -508 -312 0
90454 -509 -312 0
90454 -511 -312 0
90454 -512 312 0
90454 -513 312 0
90454 -515 312 0
90454 -459 -313 0
90454 -460 313 0
90454 516 -314 0
90454 517 314 0
90454 -463 -319 0
90454 -464 319 0
90454 -520 -320 0
90454 -521 320 0
20 465 321 0
90454 -465 -321 0
20 466 -321 0
90454 -466 321 0
90454 -524 -322 0
90454 -525 -322 0
90454 -526 -322 0
90454 -528 322 0
90454 -529 322 0
90454 -530 322 0
90454 532 -323 0
60 -532 323 0
90454 533 323 0
60 -533 -323 0
90454 534 -324 0
90454 535 324 0
90454 443 -333 0
195 -443 333 0
90454 444 333 0
195 -444 -333 0
90454 472 -334 0
195 -472 334 0
90454 473 334 0
195 -473 -334 0
90454 -445 -335 0
90454 -446 335 0
90454 474 -336 0
90454 475 336 0
90454 476 -337 0
90454 477 337 0
77 447 338 0
90454 -447 -338 0
77 448 -338 0
90454 -448 338 0
90454 -478 -339 0
90454 -479 339 0
90454 -451 -344 0
90454 -452 344 0
90454 -488 -345 0
90454 -489 345 0
90454 496 -350 0
90454 497 350 0
90454 -455 -351 0
90454 -456 351 0
90454 -498 -352 0
90454 -499 -352 0
90454 -501 -352 0
90454 -502 352 0
90454 -503 352 0
90454 -505 352 0
90454 506 -353 0
90454 507 353 0
90454 459 -358 0
90454 460 358 0
90454 516 -359 0
90454 517 359 0
29 461 360 0
90454 -461 -360 0
29 462 -360 0
90454 -462 360 0
29 518 361 0
90454 -518 -361 0
29 519 -361 0
90454 -519 361 0
90454 -463 -362 0
90454 -464 362 0
90454 -520 -363 0
90454 -521 363 0
90454 522 -364 0
123 -522 364 0
90454 523 364 0
123 -523 -364 0
90454 465 -365 0
90454 466 365 0
90454 -524 -366 0
90454 -525 -366 0
90454 -526 -366 0
90454 -528 366 0
90454 -529 366 0
90454 -530 366 0
90454 532 -367 0
90454 533 367 0
90454 534 -368 0
90454 535 368 0
90454 443 -369 0
90454 444 369 0
90454 472 -370 0
90454 473 370 0
90454 476 -371 0
90454 477 371 0
90454 -447 -372 0
90454 -448 372 0
90454 -478 -373 0
90454 -479 373 0
90454 449 -374 0
90454 450 374 0
90454 -480 -375 0
90454 -481 -375 0
90454 -482 -375 0
90454 -484 375 0
90454 -485 375 0
90454 -486 375 0
90454 -451 -376 0
90454 -452 376 0
90454 -488 -377 0
90454 -489 377 0
90454 -453 -378 0
90454 -454 378 0
90454 -490 -379 0
90454 -492 -379 0
90454 -493 379 0
90454 -495 379 0
90454 496 -380 0
90454 497 380 0
90454 -455 -381 0
90454 -456 381 0
90454 -498 -382 0
90454 -499 -382 0
90454 -501 -382 0
90454 -502 382 0
90454 -503 382 0
90454 -505 382 0
90454 506 -383 0
90454 507 383 0
90454 459 -388 0
90454 460 388 0
90454 516 -389 0
90454 517 389 0
90454 -461 -390 0
90454 -462 390 0
90454 -518 -391 0
90454 -519 391 0
90454 -463 -392 0
90454 -464 392 0
90454 -520 -393 0
90454 -521 393 0
90454 522 -394 0
90454 523 394 0
90454 465 -395 0
90454 466 395 0
90454 -524 -396 0
90454 -525 -396 0
90454 -526 -396 0
90454 -528 396 0
90454 -529 396 0
90454 -530 396 0
90454 -532 -397 0
90454 -533 397 0
90454 534 -398 0
90454 535 398 0
90454 445 -403 0
90454 446 403 0
90454 474 -404 0
90454 475 404 0
90454 476 -405 0
90454 477 405 0
90454 447 -406 0
90454 448 406 0
90454 -478 -407 0
90454 -479 407 0
90454 449 -408 0
90454 450 408 0
90454 -480 -409 0
90454 -481 -409 0
90454 -482 -409 0
90454 -484 409 0
90454 -485 409 0
90454 -486 409 0
90454 -451 -410 0
90454 -452 410 0
90454 -488 -411 0
90454 -489 411 0
90454 496 -416 0
90454 497 416 0
90454 506 -417 0
90454 507 417 0
90454 457 -418 0
90454 458 418 0
90454 -508 -419 0
90454 -509 -419 0
90454 -511 -419 0
90454 -512 419 0
90454 -513 419 0
90454 -515 419 0
90454 -459 -420 0
90454 -460 420 0
90454 -516 -421 0
90454 -517 421 0
90454 461 -422 0
90454 462 422 0
90454 518 -423 0
90454 519 423 0
90454 -522 -428 0
90454 -523 428 0
90454 532 -433 0
90454 533 433 0
90454 534 -434 0
90454 535 434 0
162 -469 467 0
126 -470 467 0
264 467 468 0
1 -469 467 -468 0
163 -469 -467 468 0
44 -470 467 -468 0
170 -470 -467 468 0
96 -471 -467 -468 0
90454 459 -189 0
90454 460 189 0
90454 90 -2 -1 0
90454 -90 -2 1 0
90454 2 1 -91 0
90454 2 -1 91 0
90454 144 -4 -3 0
90454 -144 -4 3 0
90454 4 3 -146 0
90454 4 -3 146 0
90454 -92 -6 0
90454 -92 -6 5 0
90454 -92 -6 -5 0
90454 -93 -6 -5 0
90454 -94 -6 5 0
90454 6 -95 0
90454 6 5 -95 0
90454 6 5 -97 0
90454 6 -5 -95 0
90454 6 -5 -96 0
90454 148 -7 0
90454 98 -9 -8 0
90454 -98 -9 8 0
90454 9 8 -99 0
90454 9 -8 99 0
90454 -100 -11 0
90454 -102 -11 0
90454 -100 -11 10 0
90454 -100 -11 -10 0
90454 -101 -11 -10 0
90454 -102 -11 10 0
90454 -102 -11 -10 0
90454 -103 -11 10 0
90454 11 -104 0
90454 11 -106 0
90454 11 10 -104 0
90454 11 10 -106 0
90454 11 10 -107 0
90454 11 -10 -104 0
90454 11 -10 -105 0
90454 11 -10 -106 0
90454 -108 -14 0
90454 -109 -14 0
90454 -108 -14 13 0
90454 -108 -14 -13 0
90454 -109 -14 13 0
90454 -109 -14 -13 0
90454 -110 -14 -13 0
90454 -111 -14 13 0
90454 14 -112 0
90454 14 -113 0
90454 14 13 -112 0
90454 14 13 -113 0
90454 14 13 -115 0
90454 14 -13 -112 0
90454 14 -13 -113 0
90454 14 -13 -114 0
90454 158 -16 -15 0
90454 -158 -16 15 0
90454 16 -160 0
90454 16 -161 0
90454 16 15 -160 0
90454 16 15 -161 0
90454 16 15 -163 0
90454 16 -15 -160 0
90454 16 -15 -161 0
90454 16 -15 -162 0
90454 -116 -18 0
90454 -116 -18 17 0
90454 -116 -18 -17 0
90454 -117 -18 -17 0
90454 -118 -18 17 0
90454 18 -119 0
90454 18 17 -119 0
90454 18 17 -121 0
90454 18 -17 -119 0
90454 18 -17 -120 0
90454 165 -20 -19 0
90454 -165 -20 19 0
90454 20 19 -167 0
90454 20 -19 167 0
90454 -122 -25 0
77 -123 -24 0
2 -124 24 0
90454 -122 -25 24 0
90454 -122 -25 -24 0
77 -123 25 24 0
90454 -123 -25 -24 0
2 -124 25 -24 0
90454 -124 -25 24 0
90454 25 -125 0
2 24 -127 0
77 -24 -126 0
90454 25 24 -125 0
90454 25 24 -127 0
90454 25 -24 -125 0
90454 25 -24 -126 0
77 -25 24 -126 0
2 -25 -24 -127 0
90454 175 -26 0
90454 26 -177 0
90454 -128 -29 0
18 -129 -28 0
76 -130 28 0
90454 -128 -29 28 0
90454 -128 -29 -28 0
18 -129 29 28 0
90454 -129 -29 -28 0
76 -130 29 -28 0
90454 -130 -29 28 0
90454 29 -131 0
76 28 -133 0
18 -28 -132 0
90454 29 28 -131 0
90454 29 28 -133 0
90454 29 -28 -131 0
90454 29 -28 -132 0
18 -29 28 -132 0
76 -29 -28 -133 0
90454 183 -30 0
90454 30 -185 0
90454 134 -32 -31 0
90454 -134 -32 31 0
90454 32 31 -135 0
90454 32 -31 135 0
90454 190 -34 -33 0
90454 -190 -34 33 0
90454 34 33 -192 0
90454 34 -33 192 0
90454 136 -37 -36 0
90454 -136 -37 36 0
90454 37 36 -137 0
90454 37 -36 137 0
90454 -138 -39 0
33 -139 -38 0
12 -140 38 0
90454 -138 -39 38 0
90454 -138 -39 -38 0
33 -139 39 38 0
90454 -139 -39 -38 0
12 -140 39 -38 0
90454 -140 -39 38 0
90454 39 -141 0
12 38 -143 0
33 -38 -142 0
90454 39 38 -141 0
90454 39 38 -143 0
90454 39 -38 -141 0
90454 39 -38 -142 0
33 -39 38 -142 0
12 -39 -38 -143 0
90454 200 -41 -40 0
90454 -200 -41 40 0
90454 41 -202 0
90454 41 40 -202 0
90454 41 40 -204 0
90454 41 -40 -202 0
90454 41 -40 -203 0
90454 90 -44 -43 0
90454 -90 -44 43 0
90454 44 43 -91 0
90454 44 -43 91 0
90454 144 -46 -45 0
90454 -144 -46 45 0
90454 46 45 -146 0
90454 46 -45 146 0
90454 -108 -54 0
90454 -111 -54 0
102 -109 -53 0
159 -110 53 0
90454 -108 -54 53 0
90454 -108 -54 -53 0
102 -109 54 53 0
90454 -109 -54 -53 0
159 -110 54 -53 0
90454 -110 -54 53 0
90454 -111 -54 53 0
90454 -111 -54 -53 0
90454 54 -112 0
90454 54 -115 0
159 53 -114 0
102 -53 -113 0
90454 54 53 -112 0
90454 54 53 -114 0
90454 54 53 -115 0
90454 54 -53 -112 0
90454 54 -53 -113 0
90454 54 -53 -115 0
102 -54 53 -113 0
159 -54 -53 -114 0
90454 -158 -55 0
90454 55 -160 0
90454 55 -163 0
90454 -116 -57 0
90454 -116 -57 56 0
90454 -116 -57 -56 0
90454 -117 -57 -56 0
90454 -118 -57 56 0
90454 57 -119 0
90454 57 56 -119 0
90454 57 56 -121 0
90454 57 -56 -119 0
90454 57 -56 -120 0
90454 165 -59 -58 0
90454 -165 -59 58 0
90454 59 58 -167 0
90454 59 -58 167 0
90454 -122 -64 0
90454 -122 -64 63 0
90454 -122 -64 -63 0
90454 -123 -64 -63 0
90454 -124 -64 63 0
90454 64 -125 0
90454 64 63 -125 0
90454 64 63 -127 0
90454 64 -63 -125 0
90454 64 -63 -126 0
90454 175 -65 0
90454 65 -177 0
90454 -128 -68 0
90454 -128 -68 67 0
90454 -128 -68 -67 0
90454 -129 -68 -67 0
90454 -130 -68 67 0
90454 68 -131 0
90454 68 67 -131 0
90454 68 67 -133 0
90454 68 -67 -131 0
90454 68 -67 -132 0
90454 183 -69 0
90454 69 -185 0
90454 134 -71 -70 0
90454 -134 -71 70 0
90454 71 70 -135 0
90454 71 -70 135 0
90454 190 -73 -72 0
90454 -190 -73 72 0
90454 73 72 -192 0
90454 73 -72 192 0
90454 136 -76 -75 0
90454 -136 -76 75 0
90454 76 75 -137 0
90454 76 -75 137 0
90454 -138 -78 0
90454 -138 -78 77 0
90454 -138 -78 -77 0
90454 -139 -78 -77 0
90454 -140 -78 77 0
90454 78 -141 0
90454 78 77 -141 0
90454 78 77 -143 0
90454 78 -77 -141 0
90454 78 -77 -142 0
90454 200 -80 -79 0
90454 -200 -80 79 0
90454 80 -202 0
90454 80 79 -202 0
90454 80 79 -204 0
90454 80 -79 -202 0
90454 80 -79 -203 0
43 87 84 85 88 0
7 87 -84 -85 88 0
44 -87 84 85 -88 0
266 -87 -84 -85 -88 0
90454 210 -86 -85 0
90454 -210 -86 85 0
90454 86 85 -212 0
90454 86 -85 212 0
90454 214 -89 -88 0
90454 -214 -89 88 0
90454 89 88 -216 0
90454 89 -88 216 0
90454 443 -145 -144 0
90454 -443 -145 144 0
90454 145 144 -444 0
90454 145 -144 444 0
90454 472 -147 -146 0
90454 -472 -147 146 0
90454 147 146 -473 0
90454 147 -146 473 0
90454 445 -149 148 0
90454 -445 -149 -148 0
90454 149 148 446 0
90454 149 -148 -446 0
90454 474 -151 -150 0
90454 -474 -151 150 0
90454 151 150 -475 0
90454 151 -150 475 0
90454 476 -153 -152 0
90454 -476 -153 152 0
90454 153 152 -477 0
90454 153 -152 477 0
90454 447 -155 -154 0
90454 -447 -155 154 0
90454 155 154 -448 0
90454 155 -154 448 0
90454 478 -157 -156 0
90454 -478 -157 156 0
90454 157 156 -479 0
90454 157 -156 479 0
90454 449 -159 -158 0
90454 -449 -159 158 0
90454 159 158 -450 0
90454 159 -158 450 0
90454 -480 -164 -161 0
90454 -480 -164 -162 0
90454 -480 -164 -163 0
90454 -481 -164 -160 0
90454 -481 -164 -162 0
90454 -481 -164 -163 0
90454 -482 -164 -160 0
90454 -482 -164 -161 0
90454 -482 -164 -163 0
90454 -483 -164 -160 0
90454 -483 -164 -161 0
90454 -483 -164 -162 0
90454 164 -160 -485 0
90454 164 -160 -486 0
90454 164 -160 -487 0
90454 164 -161 -484 0
90454 164 -161 -486 0
90454 164 -161 -487 0
90454 164 -162 -484 0
90454 164 -162 -485 0
90454 164 -162 -487 0
90454 164 -163 -484 0
90454 164 -163 -485 0
90454 164 -163 -486 0
90454 451 -166 -165 0
90454 -451 -166 165 0
90454 166 165 -452 0
90454 166 -165 452 0
90454 488 -168 -167 0
90454 -488 -168 167 0
90454 168 167 -489 0
90454 168 -167 489 0
90454 453 -170 169 0
90454 -453 -170 -169 0
90454 170 169 454 0
90454 170 -169 -454 0
90454 -490 -172 -171 0
90454 -491 -172 171 0
90454 -492 -172 -171 0
90454 172 171 -494 0
90454 172 -171 -493 0
90454 172 -171 -495 0
90454 496 -174 173 0
90454 -496 -174 -173 0
90454 174 173 497 0
90454 174 -173 -497 0
90454 455 -176 175 0
90454 -455 -176 -175 0
90454 176 175 456 0
90454 176 -175 -456 0
90454 -498 -180 -178 0
90454 -498 -180 -179 0
90454 -499 -180 -177 0
90454 -499 -180 -179 0
90454 -500 -180 -177 0
90454 -500 -180 -178 0
90454 -501 -180 -178 0
90454 -501 -180 -179 0
90454 180 -177 -503 0
90454 180 -177 -504 0
90454 180 -178 -502 0
90454 180 -178 -504 0
90454 180 -178 -505 0
90454 180 -179 -502 0
90454 180 -179 -503 0
90454 180 -179 -505 0
90454 506 -182 -181 0
90454 -506 -182 181 0
90454 182 181 -507 0
90454 182 -181 507 0
90454 457 -184 183 0
90454 -457 -184 -183 0
90454 184 183 458 0
90454 184 -183 -458 0
90454 -508 -188 -186 0
90454 -508 -188 -187 0
90454 -509 -188 -185 0
90454 -509 -188 -187 0
90454 -510 -188 -186 0
90454 -510 -188 -187 0
90454 -511 -188 -185 0
90454 -511 -188 -186 0
90454 188 -185 -513 0
90454 188 -185 -515 0
90454 188 -186 -512 0
90454 188 -186 -514 0
90454 188 -186 -515 0
90454 188 -187 -512 0
90454 188 -187 -513 0
90454 188 -187 -514 0
90454 461 -191 -190 0
90454 -461 -191 190 0
90454 191 190 -462 0
90454 191 -190 462 0
90454 518 -193 -192 0
90454 -518 -193 192 0
90454 193 192 -519 0
90454 193 -192 519 0
90454 463 -195 194 0
90454 -463 -195 -194 0
90454 195 194 464 0
90454 195 -194 -464 0
90454 520 -197 196 0
90454 -520 -197 -196 0
90454 197 196 521 0
90454 197 -196 -521 0
90454 522 -199 -198 0
90454 -522 -199 198 0
90454 199 198 -523 0
90454 199 -198 523 0
90454 465 -201 -200 0
90454 -465 -201 200 0
90454 201 200 -466 0
90454 201 -200 466 0
90454 -524 -205 -203 0
90454 -524 -205 -204 0
90454 -525 -205 -202 0
90454 -525 -205 -204 0
90454 -526 -205 -202 0
90454 -526 -205 -203 0
90454 -527 -205 -203 0
90454 -527 -205 -204 0
90454 205 -202 -529 0
90454 205 -202 -530 0
90454 205 -203 -528 0
90454 205 -203 -530 0
90454 205 -203 -531 0
90454 205 -204 -528 0
90454 205 -204 -529 0
90454 205 -204 -531 0
90454 532 -207 -206 0
90454 -532 -207 206 0
90454 207 206 -533 0
90454 207 -206 533 0
90454 534 -209 -208 0
90454 -534 -209 208 0
90454 209 208 -535 0
90454 209 -208 535 0
90454 467 -211 -210 0
90454 -467 -211 210 0
90454 211 210 -468 0
90454 211 -210 468 0
90454 536 -213 -212 0
90454 -536 -213 212 0
90454 213 212 -537 0
90454 213 -212 537 0
90454 449 -226 -225 0
90454 -449 -226 225 0
90454 226 225 -450 0
90454 226 -225 450 0
90454 -480 -228 0
90454 -481 -228 0
90454 -480 -228 227 0
90454 -480 -228 -227 0
90454 -481 -228 227 0
90454 -481 -228 -227 0
90454 -482 -228 -227 0
90454 -483 -228 227 0
90454 228 -484 0
90454 228 -485 0
90454 228 227 -484 0
90454 228 227 -485 0
90454 228 227 -487 0
90454 228 -227 -484 0
90454 228 -227 -485 0
90454 228 -227 -486 0
90454 463 -244 -243 0
90454 -463 -244 243 0
90454 244 243 -464 0
90454 244 -243 464 0
90454 520 -246 -245 0
90454 -520 -246 245 0
90454 246 245 -521 0
90454 246 -245 521 0
90454 443 -252 -251 0
90454 -443 -252 251 0
90454 252 251 -444 0
90454 252 -251 444 0
90454 472 -254 -253 0
90454 -472 -254 253 0
90454 254 253 -473 0
90454 254 -253 473 0
90454 453 -263 -262 0
90454 -453 -263 262 0
90454 263 262 -454 0
90454 263 -262 454 0
90454 -490 -265 0
90454 -490 -265 264 0
90454 -490 -265 -264 0
90454 -491 -265 -264 0
90454 -492 -265 264 0
90454 265 -493 0
90454 265 264 -493 0
90454 265 264 -495 0
90454 265 -264 -493 0
90454 265 -264 -494 0
90454 455 -268 -267 0
90454 -455 -268 267 0
90454 268 267 -456 0
90454 268 -267 456 0
90454 -498 -270 0
90454 -499 -270 0
90454 -498 -270 269 0
90454 -498 -270 -269 0
90454 -499 -270 269 0
90454 -499 -270 -269 0
90454 -500 -270 -269 0
90454 -501 -270 269 0
90454 270 -502 0
90454 270 -503 0
90454 270 269 -502 0
90454 270 269 -503 0
90454 270 269 -505 0
90454 270 -269 -502 0
90454 270 -269 -503 0
90454 270 -269 -504 0
90454 461 -277 -276 0
90454 -461 -277 276 0
90454 277 276 -462 0
90454 277 -276 462 0
90454 518 -279 -278 0
90454 -518 -279 278 0
90454 279 278 -519 0
90454 279 -278 519 0
43 290 286 288 292 0
7 290 -286 -288 292 0
44 -290 286 288 -292 0
266 -290 -286 -288 -292 0
90454 467 -287 -286 0
90454 -467 -287 286 0
90454 287 286 -468 0
90454 287 -286 468 0
90454 536 -289 -288 0
90454 -536 -289 288 0
90454 289 288 -537 0
90454 289 -288 537 0
90454 449 -300 -299 0
90454 -449 -300 299 0
90454 300 299 -450 0
90454 300 -299 450 0
90454 -480 -302 0
90454 -481 -302 0
90454 -480 -302 301 0
90454 -480 -302 -301 0
90454 -481 -302 301 0
90454 -481 -302 -301 0
90454 -482 -302 -301 0
90454 -483 -302 301 0
90454 302 -484 0
90454 302 -485 0
90454 302 301 -484 0
90454 302 301 -485 0
90454 302 301 -487 0
90454 302 -301 -484 0
90454 302 -301 -485 0
90454 302 -301 -486 0
90454 461 -316 -315 0
90454 -461 -316 315 0
90454 316 315 -462 0
90454 316 -315 462 0
90454 518 -318 -317 0
90454 -518 -318 317 0
90454 318 317 -519 0
90454 318 -317 519 0
9 329 325 327 -331 0
11 329 -325 -327 -331 0
7 -329 325 327 331 0
83 -329 -325 -327 331 0
90454 467 -326 -325 0
90454 -467 -326 325 0
90454 326 325 -468 0
90454 326 -325 468 0
90454 536 -328 -327 0
90454 -536 -328 327 0
90454 328 327 -537 0
90454 328 -327 537 0
90454 449 -341 -340 0
90454 -449 -341 340 0
90454 341 340 -450 0
90454 341 -340 450 0
90454 -480 -343 0
90454 -481 -343 0
90454 -480 -343 342 0
90454 -480 -343 -342 0
90454 -481 -343 342 0
90454 -481 -343 -342 0
90454 -482 -343 -342 0
90454 -483 -343 342 0
90454 343 -484 0
90454 343 -485 0
90454 343 342 -484 0
90454 343 342 -485 0
90454 343 342 -487 0
90454 343 -342 -484 0
90454 343 -342 -485 0
90454 343 -342 -486 0
90454 453 -347 -346 0
90454 -453 -347 346 0
90454 347 346 -454 0
90454 347 -346 454 0
90454 -490 -349 0
90454 -490 -349 348 0
90454 -490 -349 -348 0
90454 -491 -349 -348 0
90454 -492 -349 348 0
90454 349 -493 0
90454 349 348 -493 0
90454 349 348 -495 0
90454 349 -348 -493 0
90454 349 -348 -494 0
90454 457 -355 -354 0
90454 -457 -355 354 0
90454 355 354 -458 0
90454 355 -354 458 0
90454 -508 -357 0
90454 -511 -357 0
90454 -508 -357 356 0
90454 -508 -357 -356 0
90454 -509 -357 -356 0
90454 -510 -357 356 0
90454 -511 -357 356 0
90454 -511 -357 -356 0
90454 357 -512 0
90454 357 -515 0
90454 357 356 -512 0
90454 357 356 -514 0
90454 357 356 -515 0
90454 357 -356 -512 0
90454 357 -356 -513 0
90454 357 -356 -515 0
90454 457 -385 -384 0
90454 -457 -385 384 0
90454 385 384 -458 0
90454 385 -384 458 0
90454 -508 -387 0
90454 -511 -387 0
90454 -508 -387 386 0
90454 -508 -387 -386 0
90454 -509 -387 -386 0
90454 -510 -387 386 0
90454 -511 -387 386 0
90454 -511 -387 -386 0
90454 387 -512 0
90454 387 -515 0
90454 387 386 -512 0
90454 387 386 -514 0
90454 387 386 -515 0
90454 387 -386 -512 0
90454 387 -386 -513 0
90454 387 -386 -515 0
90454 443 -400 -399 0
90454 -443 -400 399 0
90454 400 399 -444 0
90454 400 -399 444 0
90454 472 -402 -401 0
90454 -472 -402 401 0
90454 402 401 -473 0
90454 402 -401 473 0
90454 453 -413 -412 0
90454 -453 -413 412 0
90454 413 412 -454 0
90454 413 -412 454 0
90454 -490 -415 0
90454 -490 -415 414 0
90454 -490 -415 -414 0
90454 -491 -415 -414 0
90454 -492 -415 414 0
90454 415 -493 0
90454 415 414 -493 0
90454 415 414 -495 0
90454 415 -414 -493 0
90454 415 -414 -494 0
90454 463 -425 -424 0
90454 -463 -425 424 0
90454 425 424 -464 0
90454 425 -424 464 0
90454 520 -427 -426 0
90454 -520 -427 426 0
90454 427 426 -521 0
90454 427 -426 521 0
90454 465 -430 -429 0
90454 -465 -430 429 0
90454 430 429 -466 0
90454 430 -429 466 0
90454 -524 -432 0
90454 -527 -432 0
24 -525 -431 0
4 -526 431 0
90454 -524 -432 431 0
90454 -524 -432 -431 0
24 -525 432 431 0
90454 -525 -432 -431 0
4 -526 432 -431 0
90454 -526 -432 431 0
90454 -527 -432 431 0
90454 -527 -432 -431 0
90454 432 -528 0
90454 432 -531 0
4 431 -530 0
24 -431 -529 0
90454 432 431 -528 0
90454 432 431 -530 0
90454 432 431 -531 0
90454 432 -431 -528 0
90454 432 -431 -529 0
90454 432 -431 -531 0
24 -432 431 -529 0
4 -432 -431 -530 0
43 439 435 437 441 0
7 439 -435 -437 441 0
44 -439 435 437 -441 0
266 -439 -435 -437 -441 0
90454 467 -436 -435 0
90454 -467 -436 435 0
90454 436 435 -468 0
90454 436 -435 468 0
90454 536 -438 -437 0
90454 -536 -438 437 0
90454 438 437 -537 0
90454 438 -437 537 0
9 87 88 0
11 -87 -88 0
11 290 292 0
9 -290 -292 0
14 329 -331 0
17 -329 331 0
20 439 441 0
90454 154 -12 0
218 -154 12 0
90454 12 156 0
50 84 85 0
50 286 288 0
2 329 -325 0
2 329 -327 0
61 325 -327 0
82 -325 327 0
50 435 437 0
218 430 -436 0
218 -430 436 0
218 430 -425 0
218 -430 425 0
218 417 -416 0
218 -417 416 0
218 413 -418 0
218 -413 418 0
218 406 -403 0
218 -406 403 0
218 395 -392 0
218 -395 392 0
218 385 -381 0
218 -385 381 0
218 381 -378 0
218 -381 378 0
218 371 -370 0
218 -371 370 0
218 369 -372 0
218 -369 372 0
218 365 -362 0
218 -365 362 0
218 355 -351 0
218 -355 351 0
218 351 -347 0
218 -351 347 0
218 338 -335 0
218 -338 335 0
218 321 -326 0
218 -321 326 0
218 322 -320 0
218 -322 320 0
218 321 -319 0
218 -321 319 0
218 311 -308 0
218 -311 308 0
218 308 -305 0
218 -308 305 0
218 302 -298 0
218 -302 298 0
218 296 -300 0
218 -296 300 0
218 282 -287 0
218 -282 287 0
218 283 -281 0
218 -283 281 0
218 282 -280 0
218 -282 280 0
218 272 -268 0
218 -272 268 0
218 268 -263 0
218 -268 263 0
218 261 -259 0
218 -261 259 0
218 260 -258 0
218 -260 258 0
218 258 -255 0
218 -258 255 0
218 250 -249 0
218 -250 249 0
218 248 -244 0
218 -248 244 0
218 237 -234 0
218 -237 234 0
218 234 -231 0
218 -234 231 0
218 223 -220 0
218 -223 220 0
218 201 -211 0
218 -201 211 0
218 201 -195 0
218 -201 195 0
218 193 -188 0
218 -193 188 0
218 184 -176 0
218 -184 176 0
218 176 -170 0
218 -176 170 0
218 155 -149 0
218 -155 149 0
20 22 -61 0
20 -22 61 0
218 76 -71 0
218 -76 71 0
218 71 -68 0
218 -71 68 0
218 68 -64 0
218 -68 64 0
218 61 -57 0
218 -61 57 0
218 208 42 0
124 39 -81 0
124 -39 81 0
218 37 -32 0
218 -37 32 0
218 32 -29 0
218 -32 29 0
218 29 -25 0
218 -29 25 0
218 22 -18 0
218 -22 18 0
218 87 81 0
218 80 -74 0
218 -80 74 0
218 41 -35 0
218 -41 35 0
218 12 -7 0
218 -12 7 0
70 329 -325 -327 0
75 24 0
58 -28 0
218 34 0
21 38 0
57 -53 0
218 73 0
170 84 0
194 87 0
195 -90 0
195 -91 0
67 -93 0
67 -96 0
132 98 0
132 99 0
77 -100 0
202 -103 0
77 -104 0
202 -107 0
31 -108 0
31 -112 0
32 -116 0
57 -118 0
32 -119 0
57 -121 0
29 134 0
29 135 0
123 -136 0
123 -137 0
21 325 0
1 329 0
20 431 0
181 441 0
159 449 0
159 450 0
382 -453 0
382 -454 0
91 -455 0
91 -456 0
84 -463 0
84 -464 0
349 -469 0
132 476 0
132 477 0
31 -480 0
102 -481 0
159 -482 0
31 -484 0
102 -485 0
159 -486 0
356 -490 0
382 -492 0
356 -493 0
382 -495 0
47 -498 0
75 -499 0
91 -501 0
47 -502 0
75 -503 0
91 -505 0
169 506 0
169 507 0
118 -508 0
57 -511 0
118 -512 0
57 -515 0
84 -520 0
84 -521 0
298 534 0
298 535 0
170 536 0
170 537 0
